Sat 19 May 19:20:08 CEST 2018
CPXPARAM_TimeLimit                               45
CPXPARAM_Threads                                 1
CPXPARAM_MIP_Strategy_CallbackReducedLP          0
Tried aggregator 8 times.
MIP Presolve eliminated 27859 rows and 18558 columns.
MIP Presolve modified 31493 coefficients.
Aggregator did 58496 substitutions.
Reduced MIP has 70094 rows, 46783 columns, and 163673 nonzeros.
Reduced MIP has 44104 binaries, 14 generals, 0 SOSs, and 3757 indicators.
Presolve time = 2.12 sec. (6932.80 ticks)
Probing time = 0.30 sec. (205.37 ticks)
Tried aggregator 7 times.
Aggregator did 34543 substitutions.
Reduced MIP has 35551 rows, 12240 columns, and 94587 nonzeros.
Reduced MIP has 9561 binaries, 2679 generals, 0 SOSs, and 3757 indicators.
Presolve time = 0.25 sec. (349.57 ticks)
Probing time = 0.12 sec. (131.66 ticks)
Tried aggregator 1 time.
Reduced MIP has 35551 rows, 12240 columns, and 94587 nonzeros.
Reduced MIP has 9561 binaries, 2679 generals, 0 SOSs, and 3757 indicators.
Presolve time = 0.08 sec. (102.78 ticks)
Probing time = 0.01 sec. (11.25 ticks)
Clique table members: 532780.
MIP emphasis: balance optimality and feasibility.
MIP search method: dynamic search.
Parallel mode: none, using 1 thread.
Root relaxation solution time = 0.79 sec. (822.77 ticks)

        Nodes                                         Cuts/
   Node  Left     Objective  IInf  Best Integer    Best Bound    ItCnt     Gap

      0     0        0.0000  6121                      0.0000     6122         
      0     0        0.0000  5441               Cliques: 8987     6400         

Clique cuts applied:  8987

Root node processing (before b&c):
  Real time             =   58.85 sec. (75471.23 ticks)
Sequential b&c:
  Real time             =    0.00 sec. (0.00 ticks)
                          ------------
Total (root+branch&cut) =   58.85 sec. (75471.23 ticks)
